wt[]: 
157 187 127 27 34 127 94 161 152 62 145 53 105 109 155 70 74 118 81 196 112 32 108 166 175 100 142 44 38 102 161 143 134 69 65 73 183 143 127 34 106 116 31 138 78 168 73 200 87 184 43 145 163 166 120 46 182 135 173 45 43 45 25 155 45 177 55 174 130 56 29 197 63 65 62 183 45 79 133 129 44 171 61 106 148 106 145 58 171 37 39 98 86 143 80 96 95 99 115 82 
val[]: 
158 351 137 97 205 236 279 331 235 226 257 158 235 197 311 134 231 152 131 313 207 180 111 361 296 208 309 66 50 227 191 164 201 190 73 97 226 214 198 84 302 158 74 197 141 350 269 202 282 361 163 238 189 356 296 148 283 256 298 187 105 148 99 159 134 271 167 182 139 81 138 211 165 102 199 360 105 241 145 249 158 194 107 154 165 130 195 131 237 49 210 130 148 163 171 177 120 146 183 169 